NAME : problems/30-tsp/instance-13.tsp
COMMENT : No Comment
TYPE : TSP
DIMENSION: 30
EDGE_WEIGHT_TYPE : EUC_2D
NODE_COORD_SECTION
1 1467 5376 
2 5277 5404 
3 227 5597 
4 2614 5286 
5 4145 7725 
6 7829 9423 
7 8354 1779 
8 7201 2509 
9 5996 8327 
10 4195 6046 
11 4107 3540 
12 5431 666 
13 7105 2850 
14 576 4723 
15 5681 395 
16 6555 807 
17 9381 1391 
18 9401 2030 
19 7000 2370 
20 2109 7630 
21 8574 2105 
22 3424 5884 
23 2849 2943 
24 2049 8130 
25 8705 1016 
26 3917 9698 
27 2005 195 
28 4436 3306 
29 6944 8162 
30 7864 7263 
EOF
